(set-info :smt-lib-version 2.6)
(set-logic QF_NIA)
(set-info :source |
Generated by: Cristina Borralleras, Daniel Larraz, Albert Oliveras, Enric Rodriguez-Carbonell, Albert Rubio
Generated on: 2017-04-27
Generator: VeryMax
Application: Termination proving
Target solver: barcelogic
|)
(set-info :license "https://creativecommons.org/licenses/by/4.0/")
(set-info :category "industrial")
(set-info :status sat)
(declare-fun Nl2main_x1 () Int)
(declare-fun Nl2main_y1 () Int)
(declare-fun Nl2main_x2 () Int)
(declare-fun Nl2main_y2 () Int)
(declare-fun lam0n0 () Int)
(declare-fun lam0n1 () Int)
(declare-fun lam0n2 () Int)
(declare-fun lam0n3 () Int)
(declare-fun lam0n4 () Int)
(declare-fun lam0n5 () Int)
(declare-fun Nl2CT1 () Int)
(declare-fun Nl2CT2 () Int)
(declare-fun lam1n0 () Int)
(declare-fun lam1n1 () Int)
(declare-fun lam1n2 () Int)
(declare-fun lam1n3 () Int)
(declare-fun lam1n4 () Int)
(declare-fun lam1n5 () Int)
(declare-fun lam2n0 () Int)
(declare-fun lam2n1 () Int)
(declare-fun lam2n2 () Int)
(declare-fun lam2n3 () Int)
(declare-fun lam2n4 () Int)
(declare-fun lam2n5 () Int)
(declare-fun lam3n0 () Int)
(declare-fun lam3n1 () Int)
(declare-fun lam3n2 () Int)
(declare-fun lam3n3 () Int)
(declare-fun lam3n4 () Int)
(declare-fun lam3n5 () Int)
(declare-fun lam4n0 () Int)
(declare-fun lam4n1 () Int)
(declare-fun lam4n2 () Int)
(declare-fun lam4n3 () Int)
(declare-fun lam4n4 () Int)
(declare-fun lam4n5 () Int)
(declare-fun lam5n0 () Int)
(declare-fun lam5n1 () Int)
(declare-fun lam5n2 () Int)
(declare-fun lam5n3 () Int)
(declare-fun lam5n4 () Int)
(declare-fun lam5n5 () Int)
(declare-fun lam6n0 () Int)
(declare-fun lam6n1 () Int)
(declare-fun lam7n0 () Int)
(declare-fun lam7n1 () Int)
(declare-fun main_x () Int)
(declare-fun undef3 () Int)
(declare-fun main_y () Int)
(declare-fun undef4 () Int)
(declare-fun FV_main_x_2 () Int)
(declare-fun FV_main_y_2 () Int)
(declare-fun lam8n0 () Int)
(declare-fun lam8n1 () Int)
(declare-fun lam8n2 () Int)
(declare-fun lam8n3 () Int)
(declare-fun lam8n4 () Int)
(declare-fun lam8n5 () Int)
(declare-fun lam8n6 () Int)
(declare-fun lam9n0 () Int)
(declare-fun lam9n1 () Int)
(declare-fun lam9n2 () Int)
(declare-fun lam9n3 () Int)
(declare-fun lam9n4 () Int)
(declare-fun lam9n5 () Int)
(declare-fun lam9n6 () Int)
(declare-fun lam10n0 () Int)
(declare-fun lam10n1 () Int)
(declare-fun lam10n2 () Int)
(declare-fun lam10n3 () Int)
(declare-fun lam10n4 () Int)
(declare-fun lam10n5 () Int)
(declare-fun lam10n6 () Int)
(declare-fun lam11n0 () Int)
(declare-fun lam11n1 () Int)
(declare-fun lam11n2 () Int)
(declare-fun lam11n3 () Int)
(declare-fun lam11n4 () Int)
(declare-fun lam11n5 () Int)
(declare-fun lam11n6 () Int)
(declare-fun lam11n7 () Int)
(declare-fun lam11n8 () Int)
(declare-fun lam12n0 () Int)
(declare-fun lam12n1 () Int)
(declare-fun lam12n2 () Int)
(declare-fun lam12n3 () Int)
(declare-fun lam12n4 () Int)
(declare-fun lam12n5 () Int)
(declare-fun lam12n6 () Int)
(declare-fun lam13n0 () Int)
(declare-fun lam13n1 () Int)
(declare-fun lam13n2 () Int)
(declare-fun lam13n3 () Int)
(declare-fun lam13n4 () Int)
(declare-fun lam13n5 () Int)
(declare-fun lam14n0 () Int)
(declare-fun lam14n1 () Int)
(declare-fun lam14n2 () Int)
(declare-fun lam14n3 () Int)
(declare-fun lam14n4 () Int)
(declare-fun lam14n5 () Int)
(declare-fun FV_main_y_3 () Int)
(declare-fun FV_main_x_3 () Int)
(assert ( and ( <= ( - 1 ) Nl2main_x1 ) ( <= Nl2main_x1 1 ) ( <= ( - 1 ) Nl2main_y1 ) ( <= Nl2main_y1 1 ) ( <= ( - 1 ) Nl2main_x2 ) ( <= Nl2main_x2 1 ) ( <= ( - 1 ) Nl2main_y2 ) ( <= Nl2main_y2 1 ) ))
(assert ( or ( and ( >= lam0n0 0 ) ( >= lam0n1 0 ) ( >= lam0n2 0 ) ( >= lam0n3 0 ) ( >= lam0n4 0 ) ( >= lam0n5 0 ) ( > ( + ( * 1 lam0n0 ) ( * 2 lam0n1 ) ( * 426 lam0n2 ) ( * 50001 lam0n3 ) ( * Nl2CT1 lam0n4 ) ( * Nl2CT2 lam0n5 ) ( - 1 ) ) 0 ) ( = ( + ( * ( - 1 ) lam0n1 ) ( * ( - 1 ) lam0n2 ) ( * 1 lam0n3 ) ( * Nl2main_x1 lam0n4 ) ( * Nl2main_x2 lam0n5 ) ) 0 ) ( = ( + ( * 1 lam0n0 ) ( * 1 lam0n2 ) ( * 1 lam0n3 ) ( * Nl2main_y1 lam0n4 ) ( * Nl2main_y2 lam0n5 ) ) 0 ) ) ( and ( >= lam1n0 0 ) ( >= lam1n1 0 ) ( >= lam1n2 0 ) ( >= lam1n3 0 ) ( >= lam1n4 0 ) ( >= lam1n5 0 ) ( > ( + ( * 1 lam1n0 ) ( * 2 lam1n1 ) ( * 426 lam1n2 ) ( * 50001 lam1n3 ) ( * Nl2CT1 lam1n4 ) ( * Nl2CT2 lam1n5 ) ( - 1 ( + ( + Nl2CT1 ( * Nl2main_x1 ( - 1 ) ) ) ( * Nl2main_y1 ( - 1 ) ) ) ) ) 0 ) ( = ( + ( * ( - 1 ) lam1n1 ) ( * ( - 1 ) lam1n2 ) ( * 1 lam1n3 ) ( * Nl2main_x1 lam1n4 ) ( * Nl2main_x2 lam1n5 ) ( - ( + 0 ( * Nl2main_y1 1 ) ) ) ) 0 ) ( = ( + ( * 1 lam1n0 ) ( * 1 lam1n2 ) ( * 1 lam1n3 ) ( * Nl2main_y1 lam1n4 ) ( * Nl2main_y2 lam1n5 ) ( - ( + 0 ( * Nl2main_x1 1 ) ) ) ) 0 ) ) ))
(assert ( or ( and ( >= lam0n0 0 ) ( >= lam0n1 0 ) ( >= lam0n2 0 ) ( >= lam0n3 0 ) ( >= lam0n4 0 ) ( >= lam0n5 0 ) ( > ( + ( * 1 lam0n0 ) ( * 2 lam0n1 ) ( * 426 lam0n2 ) ( * 50001 lam0n3 ) ( * Nl2CT1 lam0n4 ) ( * Nl2CT2 lam0n5 ) ( - 1 ) ) 0 ) ( = ( + ( * ( - 1 ) lam0n1 ) ( * ( - 1 ) lam0n2 ) ( * 1 lam0n3 ) ( * Nl2main_x1 lam0n4 ) ( * Nl2main_x2 lam0n5 ) ) 0 ) ( = ( + ( * 1 lam0n0 ) ( * 1 lam0n2 ) ( * 1 lam0n3 ) ( * Nl2main_y1 lam0n4 ) ( * Nl2main_y2 lam0n5 ) ) 0 ) ) ( and ( >= lam2n0 0 ) ( >= lam2n1 0 ) ( >= lam2n2 0 ) ( >= lam2n3 0 ) ( >= lam2n4 0 ) ( >= lam2n5 0 ) ( > ( + ( * 1 lam2n0 ) ( * 2 lam2n1 ) ( * 426 lam2n2 ) ( * 50001 lam2n3 ) ( * Nl2CT1 lam2n4 ) ( * Nl2CT2 lam2n5 ) ( - 1 ( + ( + Nl2CT2 ( * Nl2main_x2 ( - 1 ) ) ) ( * Nl2main_y2 ( - 1 ) ) ) ) ) 0 ) ( = ( + ( * ( - 1 ) lam2n1 ) ( * ( - 1 ) lam2n2 ) ( * 1 lam2n3 ) ( * Nl2main_x1 lam2n4 ) ( * Nl2main_x2 lam2n5 ) ( - ( + 0 ( * Nl2main_y2 1 ) ) ) ) 0 ) ( = ( + ( * 1 lam2n0 ) ( * 1 lam2n2 ) ( * 1 lam2n3 ) ( * Nl2main_y1 lam2n4 ) ( * Nl2main_y2 lam2n5 ) ( - ( + 0 ( * Nl2main_x2 1 ) ) ) ) 0 ) ) ))
(assert ( or ( and ( >= lam3n0 0 ) ( >= lam3n1 0 ) ( >= lam3n2 0 ) ( >= lam3n3 0 ) ( >= lam3n4 0 ) ( >= lam3n5 0 ) ( > ( + ( * 1 lam3n0 ) ( * 2 lam3n1 ) ( * 426 lam3n2 ) ( * 50001 lam3n3 ) ( * Nl2CT1 lam3n4 ) ( * Nl2CT2 lam3n5 ) ( - 1 ) ) 0 ) ( = ( + ( * 1 lam3n0 ) ( * 1 lam3n2 ) ( * 1 lam3n3 ) ( * Nl2main_x1 lam3n4 ) ( * Nl2main_x2 lam3n5 ) ) 0 ) ( = ( + ( * ( - 1 ) lam3n1 ) ( * ( - 1 ) lam3n2 ) ( * 1 lam3n3 ) ( * Nl2main_y1 lam3n4 ) ( * Nl2main_y2 lam3n5 ) ) 0 ) ) ( and ( >= lam4n0 0 ) ( >= lam4n1 0 ) ( >= lam4n2 0 ) ( >= lam4n3 0 ) ( >= lam4n4 0 ) ( >= lam4n5 0 ) ( > ( + ( * 1 lam4n0 ) ( * 2 lam4n1 ) ( * 426 lam4n2 ) ( * 50001 lam4n3 ) ( * Nl2CT1 lam4n4 ) ( * Nl2CT2 lam4n5 ) ( - 1 ( + ( + Nl2CT1 ( * Nl2main_x1 ( - 1 ) ) ) ( * Nl2main_y1 ( - 1 ) ) ) ) ) 0 ) ( = ( + ( * 1 lam4n0 ) ( * 1 lam4n2 ) ( * 1 lam4n3 ) ( * Nl2main_x1 lam4n4 ) ( * Nl2main_x2 lam4n5 ) ( - ( + 0 ( * Nl2main_y1 1 ) ) ) ) 0 ) ( = ( + ( * ( - 1 ) lam4n1 ) ( * ( - 1 ) lam4n2 ) ( * 1 lam4n3 ) ( * Nl2main_y1 lam4n4 ) ( * Nl2main_y2 lam4n5 ) ( - ( + 0 ( * Nl2main_x1 1 ) ) ) ) 0 ) ) ))
(assert ( or ( and ( >= lam3n0 0 ) ( >= lam3n1 0 ) ( >= lam3n2 0 ) ( >= lam3n3 0 ) ( >= lam3n4 0 ) ( >= lam3n5 0 ) ( > ( + ( * 1 lam3n0 ) ( * 2 lam3n1 ) ( * 426 lam3n2 ) ( * 50001 lam3n3 ) ( * Nl2CT1 lam3n4 ) ( * Nl2CT2 lam3n5 ) ( - 1 ) ) 0 ) ( = ( + ( * 1 lam3n0 ) ( * 1 lam3n2 ) ( * 1 lam3n3 ) ( * Nl2main_x1 lam3n4 ) ( * Nl2main_x2 lam3n5 ) ) 0 ) ( = ( + ( * ( - 1 ) lam3n1 ) ( * ( - 1 ) lam3n2 ) ( * 1 lam3n3 ) ( * Nl2main_y1 lam3n4 ) ( * Nl2main_y2 lam3n5 ) ) 0 ) ) ( and ( >= lam5n0 0 ) ( >= lam5n1 0 ) ( >= lam5n2 0 ) ( >= lam5n3 0 ) ( >= lam5n4 0 ) ( >= lam5n5 0 ) ( > ( + ( * 1 lam5n0 ) ( * 2 lam5n1 ) ( * 426 lam5n2 ) ( * 50001 lam5n3 ) ( * Nl2CT1 lam5n4 ) ( * Nl2CT2 lam5n5 ) ( - 1 ( + ( + Nl2CT2 ( * Nl2main_x2 ( - 1 ) ) ) ( * Nl2main_y2 ( - 1 ) ) ) ) ) 0 ) ( = ( + ( * 1 lam5n0 ) ( * 1 lam5n2 ) ( * 1 lam5n3 ) ( * Nl2main_x1 lam5n4 ) ( * Nl2main_x2 lam5n5 ) ( - ( + 0 ( * Nl2main_y2 1 ) ) ) ) 0 ) ( = ( + ( * ( - 1 ) lam5n1 ) ( * ( - 1 ) lam5n2 ) ( * 1 lam5n3 ) ( * Nl2main_y1 lam5n4 ) ( * Nl2main_y2 lam5n5 ) ( - ( + 0 ( * Nl2main_x2 1 ) ) ) ) 0 ) ) ))
(assert ( and ( <= ( + Nl2CT1 ( * Nl2main_x1 FV_main_x_2 ) ( * Nl2main_y1 FV_main_y_2 ) ) 0 ) ( <= ( + Nl2CT2 ( * Nl2main_x2 FV_main_x_2 ) ( * Nl2main_y2 FV_main_y_2 ) ) 0 ) ( <= ( + 1 FV_main_x_2 FV_main_y_2 ) 0 ) ))
(assert ( or ( and ( >= lam8n0 0 ) ( >= lam8n1 0 ) ( >= lam8n2 0 ) ( >= lam8n3 0 ) ( >= lam8n4 0 ) ( >= lam8n5 0 ) ( >= lam8n6 0 ) ( > ( + ( * 1 lam8n1 ) ( * 1 lam8n2 ) ( * ( - 425 ) lam8n3 ) ( * ( - 50000 ) lam8n4 ) ( * Nl2CT1 lam8n5 ) ( * Nl2CT2 lam8n6 ) ( - 1 ) ) 0 ) ( = ( + ( * 1 lam8n1 ) ( * 1 lam8n2 ) ( * 1 lam8n3 ) ( * ( - 1 ) lam8n4 ) ( * Nl2main_x1 lam8n5 ) ( * Nl2main_x2 lam8n6 ) ) 0 ) ( = ( + ( * ( - 1 ) lam8n0 ) ( * 1 lam8n2 ) ( * ( - 1 ) lam8n3 ) ( * ( - 1 ) lam8n4 ) ( * Nl2main_y1 lam8n5 ) ( * Nl2main_y2 lam8n6 ) ) 0 ) ) ( and ( >= lam9n0 0 ) ( >= lam9n1 0 ) ( >= lam9n2 0 ) ( >= lam9n3 0 ) ( >= lam9n4 0 ) ( >= lam9n5 0 ) ( >= lam9n6 0 ) ( > ( + ( * 1 lam9n1 ) ( * ( - 1 ) lam9n2 ) ( * 426 lam9n3 ) ( * 50001 lam9n4 ) ( * Nl2CT1 lam9n5 ) ( * Nl2CT2 lam9n6 ) ( - 1 ) ) 0 ) ( = ( + ( * 1 lam9n1 ) ( * 1 lam9n3 ) ( * 1 lam9n4 ) ( * Nl2main_x1 lam9n5 ) ( * Nl2main_x2 lam9n6 ) ) 0 ) ( = ( + ( * ( - 1 ) lam9n0 ) ( * 1 lam9n2 ) ( * ( - 1 ) lam9n3 ) ( * 1 lam9n4 ) ( * Nl2main_y1 lam9n5 ) ( * Nl2main_y2 lam9n6 ) ) 0 ) ) ( and ( >= lam10n0 0 ) ( >= lam10n1 0 ) ( >= lam10n2 0 ) ( >= lam10n3 0 ) ( >= lam10n4 0 ) ( >= lam10n5 0 ) ( >= lam10n6 0 ) ( > ( + ( * 1 lam10n0 ) ( * 1 lam10n1 ) ( * 2 lam10n2 ) ( * ( - 425 ) lam10n3 ) ( * ( - 50000 ) lam10n4 ) ( * Nl2CT1 lam10n5 ) ( * Nl2CT2 lam10n6 ) ( - 1 ) ) 0 ) ( = ( + ( * 1 lam10n0 ) ( * ( - 1 ) lam10n2 ) ( * ( - 1 ) lam10n3 ) ( * ( - 1 ) lam10n4 ) ( * Nl2main_x1 lam10n5 ) ( * Nl2main_x2 lam10n6 ) ) 0 ) ( = ( + ( * 1 lam10n0 ) ( * 1 lam10n1 ) ( * 1 lam10n3 ) ( * ( - 1 ) lam10n4 ) ( * Nl2main_y1 lam10n5 ) ( * Nl2main_y2 lam10n6 ) ) 0 ) ) ( and ( >= lam11n0 0 ) ( >= lam11n1 0 ) ( >= lam11n2 0 ) ( >= lam11n3 0 ) ( >= lam11n4 0 ) ( >= lam11n5 0 ) ( >= lam11n6 0 ) ( >= lam11n7 0 ) ( >= lam11n8 0 ) ( > ( + ( * 1 lam11n1 ) ( * 1 lam11n2 ) ( * ( - 1 ) lam11n3 ) ( * ( - 425 ) lam11n4 ) ( * ( - 425 ) lam11n5 ) ( * ( - 50000 ) lam11n6 ) ( * Nl2CT1 lam11n7 ) ( * Nl2CT2 lam11n8 ) ( - 1 ) ) 0 ) ( = ( + ( * ( - 1 ) lam11n0 ) ( * 1 lam11n1 ) ( * 1 lam11n3 ) ( * 1 lam11n4 ) ( * ( - 1 ) lam11n5 ) ( * ( - 1 ) lam11n6 ) ( * Nl2main_x1 lam11n7 ) ( * Nl2main_x2 lam11n8 ) ) 0 ) ( = ( + ( * 1 lam11n1 ) ( * 1 lam11n2 ) ( * ( - 1 ) lam11n4 ) ( * 1 lam11n5 ) ( * ( - 1 ) lam11n6 ) ( * Nl2main_y1 lam11n7 ) ( * Nl2main_y2 lam11n8 ) ) 0 ) ) ( and ( >= lam12n0 0 ) ( >= lam12n1 0 ) ( >= lam12n2 0 ) ( >= lam12n3 0 ) ( >= lam12n4 0 ) ( >= lam12n5 0 ) ( >= lam12n6 0 ) ( > ( + ( * 1 lam12n0 ) ( * 1 lam12n1 ) ( * 1 lam12n2 ) ( * ( - 425 ) lam12n3 ) ( * ( - 50000 ) lam12n4 ) ( * Nl2CT1 lam12n5 ) ( * Nl2CT2 lam12n6 ) ( - 1 ) ) 0 ) ( = ( + ( * 1 lam12n0 ) ( * 1 lam12n1 ) ( * 1 lam12n3 ) ( * ( - 1 ) lam12n4 ) ( * Nl2main_x1 lam12n5 ) ( * Nl2main_x2 lam12n6 ) ) 0 ) ( = ( + ( * 1 lam12n1 ) ( * 1 lam12n2 ) ( * ( - 1 ) lam12n3 ) ( * ( - 1 ) lam12n4 ) ( * Nl2main_y1 lam12n5 ) ( * Nl2main_y2 lam12n6 ) ) 0 ) ) ( and ( >= lam13n0 0 ) ( >= lam13n1 0 ) ( >= lam13n2 0 ) ( >= lam13n3 0 ) ( >= lam13n4 0 ) ( >= lam13n5 0 ) ( > ( + ( * 1 lam13n0 ) ( * 1 lam13n1 ) ( * ( - 425 ) lam13n2 ) ( * 50001 lam13n3 ) ( * Nl2CT1 lam13n4 ) ( * Nl2CT2 lam13n5 ) ( - 1 ) ) 0 ) ( = ( + ( * 1 lam13n0 ) ( * 1 lam13n2 ) ( * 1 lam13n3 ) ( * Nl2main_x1 lam13n4 ) ( * Nl2main_x2 lam13n5 ) ) 0 ) ( = ( + ( * 1 lam13n1 ) ( * ( - 1 ) lam13n2 ) ( * 1 lam13n3 ) ( * Nl2main_y1 lam13n4 ) ( * Nl2main_y2 lam13n5 ) ) 0 ) ) ( and ( >= lam14n0 0 ) ( >= lam14n1 0 ) ( >= lam14n2 0 ) ( >= lam14n3 0 ) ( >= lam14n4 0 ) ( >= lam14n5 0 ) ( > ( + ( * 1 lam14n0 ) ( * 1 lam14n1 ) ( * ( - 1 ) lam14n2 ) ( * 426 lam14n3 ) ( * Nl2CT1 lam14n4 ) ( * Nl2CT2 lam14n5 ) ( - 1 ) ) 0 ) ( = ( + ( * 1 lam14n0 ) ( * 1 lam14n2 ) ( * ( - 1 ) lam14n3 ) ( * Nl2main_x1 lam14n4 ) ( * Nl2main_x2 lam14n5 ) ) 0 ) ( = ( + ( * 1 lam14n0 ) ( * 1 lam14n1 ) ( * 1 lam14n3 ) ( * Nl2main_y1 lam14n4 ) ( * Nl2main_y2 lam14n5 ) ) 0 ) ) ))
(assert ( and ( and ( <= ( + Nl2CT1 ( * Nl2main_y1 FV_main_y_3 ) ( * Nl2main_x1 FV_main_x_3 ) ) 0 ) ( <= ( + Nl2CT2 ( * Nl2main_y2 FV_main_y_3 ) ( * Nl2main_x2 FV_main_x_3 ) ) 0 ) ) ( or ( and ( <= ( + 1 FV_main_y_3 ) 0 ) ( <= ( + 2 ( * ( - 1 ) FV_main_x_3 ) ) 0 ) ( <= ( + 426 FV_main_y_3 ( * ( - 1 ) FV_main_x_3 ) ) 0 ) ( <= ( + 50001 FV_main_y_3 FV_main_x_3 ) 0 ) ) ( and ( <= ( + 1 FV_main_x_3 ) 0 ) ( <= ( + 2 ( * ( - 1 ) FV_main_y_3 ) ) 0 ) ( <= ( + 426 ( * ( - 1 ) FV_main_y_3 ) FV_main_x_3 ) 0 ) ( <= ( + 50001 FV_main_y_3 FV_main_x_3 ) 0 ) ) ) ))
(check-sat)
(exit)
